* #variable= 52 #constraint= 3 
+1 x1 -1 x27 +2 x2 -2 x28 +4 x3 -4 x29 +8 x4 -8 x30 +16 x5 -16 x31 +32 x6 -32 x32 +64 x7 -64 x33 +128 x8 -128 x34 +256 x9 -256 x35 +512 x10 -512 x36 +1024 x11 -1024 x37 +2048 x12 -2048 x38 +4096 x13 -4096 x39 +8192 x14 -8192 x40 +16384 x15 -16384 x41 +32768 x16 -32768 x42 +65536 x17 -65536 x43 +131072 x18 -131072 x44 +262144 x19 -262144 x45 +524288 x20 -524288 x46 +1048576 x21 -1048576 x47 +2097152 x22 -2097152 x48 +4194304 x23 -4194304 x49 +8388608 x24 -8388608 x50 +16777216 x25 -16777216 x51 +33554432 x26 -33554432 x52 = 0 ;
-1 x1 -1 x27 >= -1; 
+1 x1 +1 x27 >= 1; 
